c ENC1
p cnf 19 42
2 1 0
9 12 0
3 7 5 0
-2 -1 0
-9 -12 0
-3 -7 0
-3 -5 0
-7 -5 0
-2 17 0
-17 2 0
-1 16 0
-16 1 0
-2 -9 10 0
-10 2 0
-10 9 0
-2 -12 11 0
-11 2 0
-11 12 0
-1 -9 18 0
-18 1 0
-18 9 0
-1 -12 19 0
-19 1 0
-19 12 0
-2 -3 4 0
-4 2 0
-4 3 0
-2 -7 8 0
-8 2 0
-8 7 0
-2 -5 6 0
-6 2 0
-6 5 0
-1 -3 13 0
-13 1 0
-13 3 0
-1 -7 14 0
-14 1 0
-14 7 0
-1 -5 15 0
-15 1 0
-15 5 0
